40
1 0 1
2 0 5
2 1 6
3 0 5
3 1 4
3 2 6
4 0 2
4 1 4
4 2 2
4 3 3
5 0 1
5 1 5
5 2 1
5 3 5
5 4 6
6 0 5
6 1 4
6 2 3
6 3 4
6 4 1
6 5 4
7 0 4
7 1 2
7 2 4
7 3 2
7 4 1
7 5 1
7 6 5
8 0 5
8 1 4
8 2 6
8 3 4
8 4 5
8 5 2
8 6 3
8 7 3
9 0 5
9 1 1
9 2 1
9 3 2
9 4 4
9 5 4
9 6 1
9 7 5
9 8 2
10 0 1
10 1 1
10 2 6
10 3 3
10 4 3
10 5 4
10 6 5
10 7 5
10 8 4
10 9 4
11 0 3
11 1 2
11 2 4
11 3 3
11 4 3
11 5 3
11 6 5
11 7 2
11 8 2
11 9 5
11 10 6
12 0 6
12 1 3
12 2 3
12 3 4
12 4 3
12 5 5
12 6 6
12 7 4
12 8 2
12 9 6
12 10 2
12 11 4
13 0 5
13 1 3
13 2 3
13 3 2
13 4 1
13 5 3
13 6 5
13 7 4
13 8 4
13 9 6
13 10 3
13 11 4
13 12 2
14 0 2
14 1 1
14 2 3
14 3 6
14 4 3
14 5 3
14 6 2
14 7 2
14 8 1
14 9 4
14 10 6
14 11 2
14 12 3
14 13 4
15 0 6
15 1 2
15 2 5
15 3 1
15 4 6
15 5 4
15 6 3
15 7 2
15 8 1
15 9 1
15 10 2
15 11 1
15 12 4
15 13 5
15 14 3
16 0 2
16 1 2
16 2 6
16 3 6
16 4 3
16 5 4
16 6 2
16 7 2
16 8 3
16 9 5
16 10 3
16 11 3
16 12 3
16 13 4
16 14 4
16 15 2
17 0 6
17 1 4
17 2 4
17 3 2
17 4 3
17 5 2
17 6 4
17 7 6
17 8 6
17 9 5
17 10 1
17 11 4
17 12 6
17 13 2
17 14 6
17 15 5
17 16 2
18 0 4
18 1 5
18 2 2
18 3 2
18 4 6
18 5 6
18 6 5
18 7 6
18 8 3
18 9 4
18 10 1
18 11 6
18 12 4
18 13 5
18 14 5
18 15 5
18 16 5
18 17 2
19 0 2
19 1 6
19 2 3
19 3 1
19 4 1
19 5 3
19 6 4
19 7 1
19 8 6
19 9 6
19 10 5
19 11 4
19 12 5
19 13 1
19 14 5
19 15 5
19 16 3
19 17 3
19 18 2
20 0 6
20 1 6
20 2 1
20 3 6
20 4 3
20 5 1
20 6 4
20 7 1
20 8 5
20 9 2
20 10 6
20 11 2
20 12 6
20 13 5
20 14 4
20 15 6
20 16 6
20 17 2
20 18 4
20 19 2
21 0 3
21 1 1
21 2 4
21 3 1
21 4 5
21 5 3
21 6 1
21 7 4
21 8 4
21 9 5
21 10 6
21 11 1
21 12 3
21 13 4
21 14 4
21 15 2
21 16 5
21 17 3
21 18 4
21 19 4
21 20 3
22 0 3
22 1 6
22 2 2
22 3 3
22 4 3
22 5 5
22 6 1
22 7 2
22 8 3
22 9 6
22 10 3
22 11 1
22 12 4
22 13 1
22 14 4
22 15 1
22 16 4
22 17 5
22 18 5
22 19 6
22 20 4
22 21 3
23 0 3
23 1 2
23 2 3
23 3 6
23 4 3
23 5 3
23 6 3
23 7 4
23 8 6
23 9 6
23 10 5
23 11 5
23 12 1
23 13 6
23 14 4
23 15 2
23 16 2
23 17 5
23 18 5
23 19 5
23 20 6
23 21 5
23 22 4
24 0 1
24 1 3
24 2 4
24 3 5
24 4 5
24 5 3
24 6 3
24 7 6
24 8 2
24 9 3
24 10 2
24 11 5
24 12 2
24 13 3
24 14 4
24 15 1
24 16 1
24 17 2
24 18 2
24 19 2
24 20 3
24 21 5
24 22 1
24 23 6
25 0 6
25 1 6
25 2 1
25 3 6
25 4 1
25 5 4
25 6 1
25 7 5
25 8 1
25 9 3
25 10 4
25 11 1
25 12 3
25 13 5
25 14 4
25 15 2
25 16 2
25 17 1
25 18 3
25 19 3
25 20 3
25 21 3
25 22 2
25 23 1
25 24 5
26 0 5
26 1 3
26 2 4
26 3 4
26 4 5
26 5 4
26 6 5
26 7 1
26 8 5
26 9 6
26 10 4
26 11 6
26 12 3
26 13 4
26 14 2
26 15 2
26 16 5
26 17 2
26 18 5
26 19 2
26 20 4
26 21 6
26 22 5
26 23 4
26 24 3
26 25 2
27 0 1
27 1 6
27 2 3
27 3 2
27 4 5
27 5 2
27 6 1
27 7 5
27 8 4
27 9 4
27 10 4
27 11 5
27 12 4
27 13 2
27 14 4
27 15 5
27 16 2
27 17 4
27 18 2
27 19 6
27 20 6
27 21 1
27 22 1
27 23 6
27 24 3
27 25 4
27 26 1
28 0 5
28 1 4
28 2 2
28 3 5
28 4 4
28 5 1
28 6 4
28 7 6
28 8 2
28 9 3
28 10 1
28 11 1
28 12 4
28 13 3
28 14 3
28 15 2
28 16 3
28 17 4
28 18 6
28 19 1
28 20 1
28 21 6
28 22 4
28 23 5
28 24 3
28 25 2
28 26 1
28 27 2
29 0 3
29 1 3
29 2 5
29 3 4
29 4 3
29 5 6
29 6 3
29 7 4
29 8 1
29 9 6
29 10 4
29 11 5
29 12 5
29 13 4
29 14 3
29 15 4
29 16 6
29 17 6
29 18 6
29 19 2
29 20 6
29 21 4
29 22 2
29 23 1
29 24 5
29 25 1
29 26 6
29 27 2
29 28 5
30 0 1
30 1 3
30 2 6
30 3 3
30 4 6
30 5 5
30 6 6
30 7 6
30 8 1
30 9 5
30 10 6
30 11 2
30 12 2
30 13 1
30 14 3
30 15 1
30 16 1
30 17 5
30 18 6
30 19 2
30 20 2
30 21 1
30 22 2
30 23 4
30 24 3
30 25 5
30 26 3
30 27 2
30 28 2
30 29 1
31 0 3
31 1 2
31 2 5
31 3 2
31 4 4
31 5 3
31 6 6
31 7 1
31 8 2
31 9 1
31 10 6
31 11 4
31 12 4
31 13 2
31 14 2
31 15 1
31 16 6
31 17 4
31 18 1
31 19 5
31 20 5
31 21 1
31 22 3
31 23 2
31 24 2
31 25 1
31 26 5
31 27 2
31 28 1
31 29 1
31 30 1
32 0 5
32 1 3
32 2 6
32 3 4
32 4 6
32 5 3
32 6 5
32 7 4
32 8 3
32 9 1
32 10 2
32 11 4
32 12 6
32 13 4
32 14 4
32 15 4
32 16 2
32 17 3
32 18 6
32 19 5
32 20 5
32 21 3
32 22 2
32 23 3
32 24 1
32 25 5
32 26 5
32 27 4
32 28 4
32 29 1
32 30 6
32 31 6
33 0 1
33 1 1
33 2 1
33 3 4
33 4 2
33 5 6
33 6 6
33 7 4
33 8 6
33 9 6
33 10 5
33 11 2
33 12 4
33 13 4
33 14 2
33 15 3
33 16 5
33 17 1
33 18 3
33 19 2
33 20 6
33 21 5
33 22 3
33 23 3
33 24 5
33 25 2
33 26 4
33 27 1
33 28 6
33 29 1
33 30 1
33 31 1
33 32 4
34 0 2
34 1 5
34 2 1
34 3 3
34 4 2
34 5 2
34 6 4
34 7 3
34 8 2
34 9 3
34 10 2
34 11 2
34 12 1
34 13 3
34 14 6
34 15 3
34 16 2
34 17 2
34 18 2
34 19 4
34 20 1
34 21 6
34 22 4
34 23 2
34 24 6
34 25 6
34 26 2
34 27 6
34 28 3
34 29 1
34 30 1
34 31 5
34 32 5
34 33 5
35 0 3
35 1 2
35 2 6
35 3 5
35 4 2
35 5 3
35 6 1
35 7 3
35 8 5
35 9 2
35 10 3
35 11 6
35 12 1
35 13 6
35 14 5
35 15 1
35 16 3
35 17 1
35 18 1
35 19 5
35 20 6
35 21 2
35 22 5
35 23 2
35 24 1
35 25 6
35 26 5
35 27 3
35 28 5
35 29 1
35 30 4
35 31 6
35 32 5
35 33 3
35 34 6
36 0 3
36 1 3
36 2 4
36 3 2
36 4 6
36 5 4
36 6 4
36 7 6
36 8 2
36 9 1
36 10 5
36 11 5
36 12 6
36 13 4
36 14 2
36 15 3
36 16 2
36 17 2
36 18 4
36 19 4
36 20 6
36 21 2
36 22 3
36 23 1
36 24 5
36 25 3
36 26 6
36 27 2
36 28 1
36 29 1
36 30 4
36 31 5
36 32 5
36 33 2
36 34 3
36 35 5
37 0 1
37 1 5
37 2 4
37 3 2
37 4 6
37 5 5
37 6 4
37 7 2
37 8 5
37 9 5
37 10 5
37 11 4
37 12 5
37 13 1
37 14 3
37 15 6
37 16 2
37 17 5
37 18 5
37 19 2
37 20 6
37 21 6
37 22 4
37 23 3
37 24 2
37 25 5
37 26 4
37 27 5
37 28 5
37 29 6
37 30 5
37 31 3
37 32 6
37 33 1
37 34 3
37 35 4
37 36 4
38 0 6
38 1 5
38 2 6
38 3 2
38 4 5
38 5 3
38 6 5
38 7 1
38 8 5
38 9 6
38 10 6
38 11 1
38 12 5
38 13 4
38 14 3
38 15 4
38 16 2
38 17 4
38 18 1
38 19 6
38 20 5
38 21 1
38 22 1
38 23 4
38 24 6
38 25 1
38 26 6
38 27 3
38 28 1
38 29 4
38 30 3
38 31 1
38 32 1
38 33 3
38 34 4
38 35 1
38 36 6
38 37 3
39 0 6
39 1 3
39 2 5
39 3 5
39 4 6
39 5 5
39 6 1
39 7 6
39 8 6
39 9 5
39 10 5
39 11 1
39 12 2
39 13 3
39 14 1
39 15 5
39 16 5
39 17 4
39 18 3
39 19 2
39 20 1
39 21 3
39 22 1
39 23 2
39 24 1
39 25 3
39 26 4
39 27 6
39 28 2
39 29 6
39 30 5
39 31 3
39 32 1
39 33 1
39 34 4
39 35 5
39 36 3
39 37 5
39 38 5
